************************************************************************
file with basedata            : md379_.bas
initial value random generator: 838064650
************************************************************************
projects                      :  1
jobs (incl. supersource/sink ):  22
horizon                       :  162
RESOURCES
  - renewable                 :  2   R
  - nonrenewable              :  2   N
  - doubly constrained        :  0   D
************************************************************************
PROJECT INFORMATION:
pronr.  #jobs rel.date duedate tardcost  MPM-Time
    1     20      0       22       17       22
************************************************************************
PRECEDENCE RELATIONS:
jobnr.    #modes  #successors   successors
   1        1          3           2   3   4
   2        3          3           6   7   8
   3        3          3           5  11  12
   4        3          3           6  16  18
   5        3          1          17
   6        3          2          17  21
   7        3          1          10
   8        3          3           9  11  14
   9        3          2          10  15
  10        3          2          13  16
  11        3          3          18  19  20
  12        3          3          13  15  19
  13        3          1          18
  14        3          1          15
  15        3          2          20  21
  16        3          2          17  20
  17        3          1          19
  18        3          1          21
  19        3          1          22
  20        3          1          22
  21        3          1          22
  22        1          0        
************************************************************************
REQUESTS/DURATIONS:
jobnr. mode duration  R 1  R 2  N 1  N 2
------------------------------------------------------------------------
  1      1     0       0    0    0    0
  2      1     4       7    0    8    1
         2     7       6    0    7    1
         3     7       5    0    8    1
  3      1     1       8    0    8    6
         2     8       6    0    6    3
         3    10       0    7    5    3
  4      1     2       0    6    8   10
         2     7       0    4    7    9
         3     8       0    2    5    8
  5      1     1       2    0    6    5
         2     4       1    0    5    5
         3     9       0    8    5    3
  6      1     4       4    0    8    9
         2     6       4    0    6    9
         3    10       0    2    4    8
  7      1     2      10    0    8    9
         2     3       8    0    3    9
         3     4       5    0    1    7
  8      1     1       0    5    7    9
         2     3       9    0    7    5
         3     4       7    0    6    3
  9      1     2       9    0    8    5
         2     9       9    0    8    3
         3    10       8    0    7    1
 10      1     2       0    8    8    6
         2     3       0    8    6    6
         3     8       0    8    4    5
 11      1     1       0    7    7   10
         2     2       9    0    6    7
         3     4       0    5    6    3
 12      1     1       0    9    8    5
         2     9       0    8    8    4
         3    10       6    0    8    4
 13      1     5       0   10    4   10
         2     6       5    0    4    7
         3    10       5    0    1    1
 14      1     4       0   10    3    6
         2     7       0    7    2    4
         3     7       0    8    1    6
 15      1     3       0    9    6   10
         2     3       5    0    6    9
         3    10       0    9    5    8
 16      1     2       0   10    9    3
         2     3       0    7    7    3
         3     7       0    4    4    3
 17      1     5       2    0    4    4
         2     8       2    0    3    3
         3    10       1    0    2    3
 18      1     7       8    0    9    6
         2     9       7    0    9    3
         3    10       6    0    9    3
 19      1     3       5    0    7    3
         2     7       0    2    7    2
         3     8       3    0    6    2
 20      1     1       2    0    8    8
         2     7       2    0    7    7
         3    10       0    6    4    7
 21      1     1       0   10   10    6
         2     2       4    0    9    5
         3     6       0   10    9    3
 22      1     0       0    0    0    0
************************************************************************
RESOURCEAVAILABILITIES:
  R 1  R 2  N 1  N 2
   24   29  144  131
************************************************************************
MAXIMAL LAGS:
from  to  type  delay
    1   12   ES      0
    1    2   ES      0
    2   12   ES      0
    1    3   ES      0
    3   12   ES      0
    1    4   ES      0
    4   12   ES      0
    1    5   ES      0
    5   12   ES      0
    1    6   ES      0
    6   12   ES      0
    1    7   ES      0
    7   12   ES      0
    1    8   ES      0
    8   12   ES      0
    1    9   ES      0
    9   12   ES      0
    1   10   ES      0
   10   12   ES      0
    1   11   ES      0
   11   12   ES      0
    1   12   ES      0
    2    6   SS    -12
    2    6   SE      6
    2    6   ES      2
    2    6   EE     -1
    2    7   SS      3
    2    7   SE     10
    2    7   ES      4
    2    7   EE      5
    2    8   SS     -1
    2    8   SE     -9
    8    2   SE      0
    2    8   ES      0
    2    8   EE      0
    3    5   SS    -10
    3    5   SE      6
    3    5   ES    -12
    3    5   EE      3
    3   11   SS      0
    3   11   SE     -4
    3   11   ES     -3
    3   11   EE     -4
    4    6   SS      7
    4    6   SE    -11
    4    6   ES     -4
    4    6   EE     -5
    4   16   SS      6
    4   16   SE     -3
    4   16   ES     11
    4   16   EE      9
    4   18   SS     10
    4   18   SE      0
    4   18   ES     10
    4   18   EE    -10
    5   17   SS      1
    5   17   SE      8
    5   17   ES     -8
    5   17   EE     -8
    6   17   SS     10
    6   17   SE     -7
    6   17   ES      2
    6   17   EE     10
    6   21   SS      2
    6   21   SE     -8
    6   21   ES      1
    6   21   EE     -9
    7   10   SS    -12
    7   10   SE     -2
    7   10   ES     -4
    7   10   EE     12
    8    9   SS      8
    8    9   SE    -11
    8    9   ES     -7
    8    9   EE     11
    8   11   SS      0
    8   11   SE    -12
    8   11   ES     11
    8   11   EE     -7
    8   14   SS      4
    8   14   SE      8
    8   14   ES     -3
    8   14   EE      1
    9   10   SS     -1
    9   10   SE     11
    9   10   ES     -2
    9   10   EE      6
    9   15   SS     -8
    9   15   SE    -10
    9   15   ES     10
    9   15   EE      4
   10   13   SS      6
   10   13   SE     -2
   10   13   ES      0
   10   13   EE      5
   10   16   SS      4
   10   16   SE      0
   10   16   ES     -4
   10   16   EE      7
   11   18   SS      6
   11   18   SE     -6
   11   18   ES     -6
   11   18   EE      9
   11   19   SS      6
   11   19   SE      2
   11   19   ES     -4
   11   19   EE     -1
   11   20   SS     -6
   11   20   SE      7
   11   20   ES    -10
   11   20   EE      5
   12   13   SS    -11
   12   13   SE     -7
   12   13   ES     -5
   12   13   EE      5
   12   15   SS     -3
   12   15   SE      5
   12   15   ES      2
   12   15   EE      1
   12   19   SS    -10
   12   19   SE      8
   12   19   ES     -3
   12   19   EE     -3
   13   18   SS     -4
   13   18   SE     -5
   13   18   ES     11
   13   18   EE     10
   14   15   SS     -5
   14   15   SE      9
   14   15   ES      9
   14   15   EE     12
   15   20   SS      2
   15   20   SE     -5
   15   20   ES      0
   15   20   EE     12
   15   21   SS      8
   15   21   SE      8
   15   21   ES    -11
   15   21   EE      7
   16   17   SS    -11
   16   17   SE      4
   16   17   ES     -2
   16   17   EE      2
   16   20   SS     -2
   16   20   SE     -5
   16   20   ES     12
   16   20   EE     11
   17   19   SS      2
   17   19   SE      7
   17   19   ES     -3
   17   19   EE      2
   18   21   SS      0
   18   21   SE     12
   18   21   ES     -6
   18   21   EE     -9
   19   22   SS      4
   19   22   SE     10
   19   22   ES     -6
   19   22   EE      8
   20   22   SS     -4
   20   22   SE     -7
   20   22   ES     10
   20   22   EE      6
   21   22   SS    -12
   21   22   SE    -12
   21   22   ES     -7
   21   22   EE     -3
************************************************************************
